(declare-const v0 Bool)
(declare-const v1 Bool)
(declare-const v2 Bool)
(declare-const v3 Bool)
(declare-const v4 Bool)
(assert (edge (not v0) (or (not v1) v2)))
(assert (edge (or (not v2) (not v3)) (or v2 v4)))
(assert (edge (or v0 v4 (not v2)) (or v0 v3 (not v2))))
(assert (edge true (or (not v4) (not v0) (not v2))))
(assert (edge (or v4 (not v0)) v0))
(assert (not (edge (or v2 (not v0) (not v1)) (or v0 (not v4)))))